
  15    0


   0   8 2 4 5 6 11 12 13 14 
   9   2 10 3 
  10   1 8 
   7   1 9 
   8   1 7 
   4   1 7 
   7   1 15
   1   1 15
   6   1 15
   1   1 15
   8   1 15
   7   1 15
   3   1 15
   8   1 15
   0   0 
